&control
    calculation = 'scf'
    verbosity = 'high'
    restart_mode = 'from_scratch'
    prefix = 'fe_fm_vacancy_uspp'
    outdir = './out'
    pseudo_dir = './pseudo'
    tprnfor = .true.
    tstress = .true.
    disk_io = 'none'
    wf_collect = .false.
    max_seconds = 18000
/
&system
    ibrav = 0
    nat = 53
    ntyp = 1
    ecutwfc = 90
    ecutrho = 1080
    occupations = 'smearing'
    smearing = 'mv'
    degauss = 0.01
    nspin = 2
    starting_magnetization(1) = 0.4
/
&electrons
    electron_maxstep = 300
    conv_thr = 1.0d-8
    mixing_beta = 0.2
/
ATOMIC_SPECIES
    Fe  55.845  Fe.pbe-spn-rrkjus_psl.0.2.1.UPF
CELL_PARAMETERS angstrom
    8.60430000 0.00000000 0.00000000
    0.00000000 8.60430000 0.00000000
    0.00000000 0.00000000 8.60430000
ATOMIC_POSITIONS angstrom
Fe              -0.0009176766       -0.0009176766       -0.0009176766
Fe               1.4791481783        1.4791481783        1.4791481783
Fe               0.0096113948        0.0096113948        2.8681000000
Fe               1.4791481783        1.4791481783        4.2570518217
Fe              -0.0009176766       -0.0009176766        5.7371176766
Fe               1.4299411764        1.4299411764        7.1702500000
Fe               0.0096113948        2.8681000000        0.0096113948
Fe               1.4791481783        4.2570518217        1.4791481783
Fe              -0.0365246268        2.8681000000        2.8681000000
Fe               1.4791481783        4.2570518217        4.2570518217
Fe               0.0096113948        2.8681000000        5.7265886052
Fe               1.4299411764        4.3062588236        7.1702500000
Fe              -0.0009176766        5.7371176766       -0.0009176766
Fe               1.4299411764        7.1702500000        1.4299411764
Fe               0.0096113948        5.7265886052        2.8681000000
Fe               1.4299411764        7.1702500000        4.3062588236
Fe              -0.0009176766        5.7371176766        5.7371176766
Fe               1.4421132382        7.1702500000        7.1702500000
Fe               2.8681000000        0.0096113948        0.0096113948
Fe               4.2570518217        1.4791481783        1.4791481783
Fe               2.8681000000       -0.0365246268        2.8681000000
Fe               4.2570518217        1.4791481783        4.2570518217
Fe               2.8681000000        0.0096113948        5.7265886052
Fe               4.3062588236        1.4299411764        7.1702500000
Fe               2.8681000000        2.8681000000       -0.0365246268
Fe               4.2570518217        4.2570518217        1.4791481783
Fe               4.2570518217        4.2570518217        4.2570518217
Fe               2.8681000000        2.8681000000        5.7727246268
Fe               4.3062588236        4.3062588236        7.1702500000
Fe               2.8681000000        5.7265886052        0.0096113948
Fe               4.3062588236        7.1702500000        1.4299411764
Fe               2.8681000000        5.7727246268        2.8681000000
Fe               4.3062588236        7.1702500000        4.3062588236
Fe               2.8681000000        5.7265886052        5.7265886052
Fe               4.2940867618        7.1702500000        7.1702500000
Fe               5.7371176766       -0.0009176766       -0.0009176766
Fe               7.1702500000        1.4299411764        1.4299411764
Fe               5.7265886052        0.0096113948        2.8681000000
Fe               7.1702500000        1.4299411764        4.3062588236
Fe               5.7371176766       -0.0009176766        5.7371176766
Fe               7.1702500000        1.4421132382        7.1702500000
Fe               5.7265886052        2.8681000000        0.0096113948
Fe               7.1702500000        4.3062588236        1.4299411764
Fe               5.7727246268        2.8681000000        2.8681000000
Fe               7.1702500000        4.3062588236        4.3062588236
Fe               5.7265886052        2.8681000000        5.7265886052
Fe               7.1702500000        4.2940867618        7.1702500000
Fe               5.7371176766        5.7371176766       -0.0009176766
Fe               7.1702500000        7.1702500000        1.4421132382
Fe               5.7265886052        5.7265886052        2.8681000000
Fe               7.1702500000        7.1702500000        4.2940867618
Fe               5.7371176766        5.7371176766        5.7371176766
Fe               7.1702500000        7.1702500000        7.1702500000

K_POINTS automatic
    10 10 10 0 0 0
