&control
    calculation = 'relax'
    verbosity = 'high'
    restart_mode = 'from_scratch'
    prefix = 'fe_fm_vacancy_uspp'
    outdir = './out'
    pseudo_dir = './pseudo'
    tprnfor = .true.
    tstress = .true.
    disk_io = 'none'
    wf_collect = .false.
    max_seconds = 140400
/
&system
    ibrav = 0
    nat = 53
    ntyp = 1
    ecutwfc = 90
    ecutrho = 1080
    occupations = 'smearing'
    smearing = 'mv'
    degauss = 0.01
    nspin = 2
    starting_magnetization(1) = 0.4
/
&electrons
    electron_maxstep = 300
    conv_thr = 1.0d-8
    mixing_beta = 0.2
/
&ions
    ion_dynamics = 'bfgs' 
/
ATOMIC_SPECIES
    Fe  55.845  Fe.pbe-spn-rrkjus_psl.0.2.1.UPF
CELL_PARAMETERS angstrom
    8.60430000 0.00000000 0.00000000
    0.00000000 8.60430000 0.00000000
    0.00000000 0.00000000 8.60430000
ATOMIC_POSITIONS angstrom
    Fe  0.00000000 0.00000000 0.00000000
    Fe  1.43405000 1.43405000 1.43405000
    Fe  0.00000000 0.00000000 2.86810000
    Fe  1.43405000 1.43405000 4.30215000
    Fe  0.00000000 0.00000000 5.73620000
    Fe  1.43405000 1.43405000 7.17025000
    Fe  0.00000000 2.86810000 0.00000000
    Fe  1.43405000 4.30215000 1.43405000
    Fe  0.00000000 2.86810000 2.86810000
    Fe  1.43405000 4.30215000 4.30215000
    Fe  0.00000000 2.86810000 5.73620000
    Fe  1.43405000 4.30215000 7.17025000
    Fe  0.00000000 5.73620000 0.00000000
    Fe  1.43405000 7.17025000 1.43405000
    Fe  0.00000000 5.73620000 2.86810000
    Fe  1.43405000 7.17025000 4.30215000
    Fe  0.00000000 5.73620000 5.73620000
    Fe  1.43405000 7.17025000 7.17025000
    Fe  2.86810000 0.00000000 0.00000000
    Fe  4.30215000 1.43405000 1.43405000
    Fe  2.86810000 0.00000000 2.86810000
    Fe  4.30215000 1.43405000 4.30215000
    Fe  2.86810000 0.00000000 5.73620000
    Fe  4.30215000 1.43405000 7.17025000
    Fe  2.86810000 2.86810000 0.00000000
    Fe  4.30215000 4.30215000 1.43405000
    Fe  4.30215000 4.30215000 4.30215000
    Fe  2.86810000 2.86810000 5.73620000
    Fe  4.30215000 4.30215000 7.17025000
    Fe  2.86810000 5.73620000 0.00000000
    Fe  4.30215000 7.17025000 1.43405000
    Fe  2.86810000 5.73620000 2.86810000
    Fe  4.30215000 7.17025000 4.30215000
    Fe  2.86810000 5.73620000 5.73620000
    Fe  4.30215000 7.17025000 7.17025000
    Fe  5.73620000 0.00000000 0.00000000
    Fe  7.17025000 1.43405000 1.43405000
    Fe  5.73620000 0.00000000 2.86810000
    Fe  7.17025000 1.43405000 4.30215000
    Fe  5.73620000 0.00000000 5.73620000
    Fe  7.17025000 1.43405000 7.17025000
    Fe  5.73620000 2.86810000 0.00000000
    Fe  7.17025000 4.30215000 1.43405000
    Fe  5.73620000 2.86810000 2.86810000
    Fe  7.17025000 4.30215000 4.30215000
    Fe  5.73620000 2.86810000 5.73620000
    Fe  7.17025000 4.30215000 7.17025000
    Fe  5.73620000 5.73620000 0.00000000
    Fe  7.17025000 7.17025000 1.43405000
    Fe  5.73620000 5.73620000 2.86810000
    Fe  7.17025000 7.17025000 4.30215000
    Fe  5.73620000 5.73620000 5.73620000
    Fe  7.17025000 7.17025000 7.17025000

K_POINTS automatic
    10 10 10 0 0 0
