&control
    calculation = 'scf'
    verbosity = 'high'
    restart_mode = 'from_scratch'
    prefix = 'fe_nm_bulk_3x3x3_k101010_uspp_scf'
    outdir = './out'
    pseudo_dir = './pseudo'
    tprnfor = .true.
    tstress = .true.
    disk_io = 'none'
    wf_collect = .false.
    max_seconds = 19800
/
&system
    ibrav = 0
    nat = 54
    ntyp = 1
    ecutwfc = 90
    ecutrho = 1080
    occupations = 'smearing'
    smearing = 'mv'
    degauss = 0.01
    nspin = 1

/
&electrons
    electron_maxstep = 300
    conv_thr = 1.0d-8
    mixing_beta = 0.2
/

ATOMIC_SPECIES
    Fe  55.845  Fe.pbe-spn-rrkjus_psl.0.2.1.UPF

CELL_PARAMETERS angstrom
8.60430000 0.00000000 0.00000000
    0.00000000 8.60430000 0.00000000
    0.00000000 0.00000000 8.60430000

ATOMIC_POSITIONS (angstrom)
Fe               0.0000000000        0.0000000000        0.0000000000
Fe               1.4340500000        1.4340500000        1.4340500000
Fe               0.0000000000        0.0000000000        2.8681000000
Fe               1.4340500000        1.4340500000        4.3021500000
Fe               0.0000000000        0.0000000000        5.7362000000
Fe               1.4340500000        1.4340500000        7.1702500000
Fe               0.0000000000        2.8681000000        0.0000000000
Fe               1.4340500000        4.3021500000        1.4340500000
Fe               0.0000000000        2.8681000000        2.8681000000
Fe               1.4340500000        4.3021500000        4.3021500000
Fe               0.0000000000        2.8681000000        5.7362000000
Fe               1.4340500000        4.3021500000        7.1702500000
Fe               0.0000000000        5.7362000000        0.0000000000
Fe               1.4340500000        7.1702500000        1.4340500000
Fe               0.0000000000        5.7362000000        2.8681000000
Fe               1.4340500000        7.1702500000        4.3021500000
Fe               0.0000000000        5.7362000000        5.7362000000
Fe               1.4340500000        7.1702500000        7.1702500000
Fe               2.8681000000        0.0000000000        0.0000000000
Fe               4.3021500000        1.4340500000        1.4340500000
Fe               2.8681000000        0.0000000000        2.8681000000
Fe               4.3021500000        1.4340500000        4.3021500000
Fe               2.8681000000        0.0000000000        5.7362000000
Fe               4.3021500000        1.4340500000        7.1702500000
Fe               2.8681000000        2.8681000000        0.0000000000
Fe               4.3021500000        4.3021500000        1.4340500000
Fe               2.8681000000        2.8681000000        2.8681000000
Fe               4.3021500000        4.3021500000        4.3021500000
Fe               2.8681000000        2.8681000000        5.7362000000
Fe               4.3021500000        4.3021500000        7.1702500000
Fe               2.8681000000        5.7362000000        0.0000000000
Fe               4.3021500000        7.1702500000        1.4340500000
Fe               2.8681000000        5.7362000000        2.8681000000
Fe               4.3021500000        7.1702500000        4.3021500000
Fe               2.8681000000        5.7362000000        5.7362000000
Fe               4.3021500000        7.1702500000        7.1702500000
Fe               5.7362000000        0.0000000000        0.0000000000
Fe               7.1702500000        1.4340500000        1.4340500000
Fe               5.7362000000        0.0000000000        2.8681000000
Fe               7.1702500000        1.4340500000        4.3021500000
Fe               5.7362000000        0.0000000000        5.7362000000
Fe               7.1702500000        1.4340500000        7.1702500000
Fe               5.7362000000        2.8681000000        0.0000000000
Fe               7.1702500000        4.3021500000        1.4340500000
Fe               5.7362000000        2.8681000000        2.8681000000
Fe               7.1702500000        4.3021500000        4.3021500000
Fe               5.7362000000        2.8681000000        5.7362000000
Fe               7.1702500000        4.3021500000        7.1702500000
Fe               5.7362000000        5.7362000000        0.0000000000
Fe               7.1702500000        7.1702500000        1.4340500000
Fe               5.7362000000        5.7362000000        2.8681000000
Fe               7.1702500000        7.1702500000        4.3021500000
Fe               5.7362000000        5.7362000000        5.7362000000
Fe               7.1702500000        7.1702500000        7.1702500000

K_POINTS automatic
    10 10 10 0 0 0
