&control
    calculation = 'scf'
    verbosity = 'high'
    restart_mode = 'from_scratch'
    prefix = 'fe_nm_vacancy_uspp'
    outdir = './out'
    pseudo_dir = './pseudo'
    tprnfor = .true.
    tstress = .true.
    disk_io = 'none'
    wf_collect = .false.
    max_seconds = 18000
/
&system
    ibrav = 0
    nat = 53
    ntyp = 1
    ecutwfc = 90
    ecutrho = 1080
    occupations = 'smearing'
    smearing = 'mv'
    degauss = 0.01
    nspin = 1
/
&electrons
    electron_maxstep = 300
    conv_thr = 1.0d-8
    mixing_beta = 0.2
/
ATOMIC_SPECIES
    Fe  55.845  Fe.pbe-spn-rrkjus_psl.0.2.1.UPF
CELL_PARAMETERS angstrom
    8.60430000 0.00000000 0.00000000
    0.00000000 8.60430000 0.00000000
    0.00000000 0.00000000 8.60430000
ATOMIC_POSITIONS angstrom
Fe               0.2528478934        0.2528478934        0.2528478934
Fe               1.6897295265        1.6897295265        1.6897295265
Fe               0.1979112048        0.1979112048        2.8681000000
Fe               1.6897295265        1.6897295265        4.0464704735
Fe               0.2528478934        0.2528478934        5.4833521066
Fe               1.2980427236        1.2980427236        7.1702500000
Fe               0.1979112048        2.8681000000        0.1979112048
Fe               1.6897295265        4.0464704735        1.6897295265
Fe              -0.1112019443        2.8681000000        2.8681000000
Fe               1.6897295265        4.0464704735        4.0464704735
Fe               0.1979112048        2.8681000000        5.5382887952
Fe               1.2980427236        4.4381572764        7.1702500000
Fe               0.2528478934        5.4833521066        0.2528478934
Fe               1.2980427236        7.1702500000        1.2980427236
Fe               0.1979112048        5.5382887952        2.8681000000
Fe               1.2980427236        7.1702500000        4.4381572764
Fe               0.2528478934        5.4833521066        5.4833521066
Fe               1.3570881381        7.1702500000        7.1702500000
Fe               2.8681000000        0.1979112048        0.1979112048
Fe               4.0464704735        1.6897295265        1.6897295265
Fe               2.8681000000       -0.1112019443        2.8681000000
Fe               4.0464704735        1.6897295265        4.0464704735
Fe               2.8681000000        0.1979112048        5.5382887952
Fe               4.4381572764        1.2980427236        7.1702500000
Fe               2.8681000000        2.8681000000       -0.1112019443
Fe               4.0464704735        4.0464704735        1.6897295265
Fe               4.0464704735        4.0464704735        4.0464704735
Fe               2.8681000000        2.8681000000        5.8474019443
Fe               4.4381572764        4.4381572764        7.1702500000
Fe               2.8681000000        5.5382887952        0.1979112048
Fe               4.4381572764        7.1702500000        1.2980427236
Fe               2.8681000000        5.8474019443        2.8681000000
Fe               4.4381572764        7.1702500000        4.4381572764
Fe               2.8681000000        5.5382887952        5.5382887952
Fe               4.3791118619        7.1702500000        7.1702500000
Fe               5.4833521066        0.2528478934        0.2528478934
Fe               7.1702500000        1.2980427236        1.2980427236
Fe               5.5382887952        0.1979112048        2.8681000000
Fe               7.1702500000        1.2980427236        4.4381572764
Fe               5.4833521066        0.2528478934        5.4833521066
Fe               7.1702500000        1.3570881381        7.1702500000
Fe               5.5382887952        2.8681000000        0.1979112048
Fe               7.1702500000        4.4381572764        1.2980427236
Fe               5.8474019443        2.8681000000        2.8681000000
Fe               7.1702500000        4.4381572764        4.4381572764
Fe               5.5382887952        2.8681000000        5.5382887952
Fe               7.1702500000        4.3791118619        7.1702500000
Fe               5.4833521066        5.4833521066        0.2528478934
Fe               7.1702500000        7.1702500000        1.3570881381
Fe               5.5382887952        5.5382887952        2.8681000000
Fe               7.1702500000        7.1702500000        4.3791118619
Fe               5.4833521066        5.4833521066        5.4833521066
Fe               7.1702500000        7.1702500000        7.1702500000

K_POINTS automatic
    10 10 10 0 0 0
