&control
    calculation = 'scf'
    verbosity = 'high'
    restart_mode = 'from_scratch'
    prefix = 'fe_fm_vacancy_paw'
    outdir = './out'
    pseudo_dir = './pseudo'
    tprnfor = .true.
    tstress = .true.
    disk_io = 'none'
    wf_collect = .false.
    max_seconds = 18000
/
&system
    ibrav = 0
    nat = 53
    ntyp = 1
    ecutwfc = 90
    ecutrho = 1080
    occupations = 'smearing'
    smearing = 'mv'
    degauss = 0.01
    nspin = 2
    starting_magnetization(1) = 0.4
/
&electrons
    electron_maxstep = 300
    conv_thr = 1.0d-8
    mixing_beta = 0.2
/
ATOMIC_SPECIES
    Fe  55.845  Fe.pbe-spn-kjpaw_psl.1.0.0.UPF
CELL_PARAMETERS angstrom
    8.60430000 0.00000000 0.00000000
    0.00000000 8.60430000 0.00000000
    0.00000000 0.00000000 8.60430000
ATOMIC_POSITIONS angstrom
Fe              -0.0011277746       -0.0011277746       -0.0011277746
Fe               1.4784741804        1.4784741804        1.4784741804
Fe               0.0094821518        0.0094821518        2.8681000000
Fe               1.4784741804        1.4784741804        4.2577258196
Fe              -0.0011277746       -0.0011277746        5.7373277746
Fe               1.4300351052        1.4300351052        7.1702500000
Fe               0.0094821518        2.8681000000        0.0094821518
Fe               1.4784741804        4.2577258196        1.4784741804
Fe              -0.0358975715        2.8681000000        2.8681000000
Fe               1.4784741804        4.2577258196        4.2577258196
Fe               0.0094821518        2.8681000000        5.7267178482
Fe               1.4300351052        4.3061648948        7.1702500000
Fe              -0.0011277746        5.7373277746       -0.0011277746
Fe               1.4300351052        7.1702500000        1.4300351052
Fe               0.0094821518        5.7267178482        2.8681000000
Fe               1.4300351052        7.1702500000        4.3061648948
Fe              -0.0011277746        5.7373277746        5.7373277746
Fe               1.4421628738        7.1702500000        7.1702500000
Fe               2.8681000000        0.0094821518        0.0094821518
Fe               4.2577258196        1.4784741804        1.4784741804
Fe               2.8681000000       -0.0358975715        2.8681000000
Fe               4.2577258196        1.4784741804        4.2577258196
Fe               2.8681000000        0.0094821518        5.7267178482
Fe               4.3061648948        1.4300351052        7.1702500000
Fe               2.8681000000        2.8681000000       -0.0358975715
Fe               4.2577258196        4.2577258196        1.4784741804
Fe               4.2577258196        4.2577258196        4.2577258196
Fe               2.8681000000        2.8681000000        5.7720975715
Fe               4.3061648948        4.3061648948        7.1702500000
Fe               2.8681000000        5.7267178482        0.0094821518
Fe               4.3061648948        7.1702500000        1.4300351052
Fe               2.8681000000        5.7720975715        2.8681000000
Fe               4.3061648948        7.1702500000        4.3061648948
Fe               2.8681000000        5.7267178482        5.7267178482
Fe               4.2940371262        7.1702500000        7.1702500000
Fe               5.7373277746       -0.0011277746       -0.0011277746
Fe               7.1702500000        1.4300351052        1.4300351052
Fe               5.7267178482        0.0094821518        2.8681000000
Fe               7.1702500000        1.4300351052        4.3061648948
Fe               5.7373277746       -0.0011277746        5.7373277746
Fe               7.1702500000        1.4421628738        7.1702500000
Fe               5.7267178482        2.8681000000        0.0094821518
Fe               7.1702500000        4.3061648948        1.4300351052
Fe               5.7720975715        2.8681000000        2.8681000000
Fe               7.1702500000        4.3061648948        4.3061648948
Fe               5.7267178482        2.8681000000        5.7267178482
Fe               7.1702500000        4.2940371262        7.1702500000
Fe               5.7373277746        5.7373277746       -0.0011277746
Fe               7.1702500000        7.1702500000        1.4421628738
Fe               5.7267178482        5.7267178482        2.8681000000
Fe               7.1702500000        7.1702500000        4.2940371262
Fe               5.7373277746        5.7373277746        5.7373277746
Fe               7.1702500000        7.1702500000        7.1702500000

K_POINTS automatic
    10 10 10 0 0 0
