&control
    calculation = 'scf'
    verbosity = 'high'
    restart_mode = 'from_scratch'
    prefix = 'fe_nm_vacancy_paw'
    outdir = './out'
    pseudo_dir = './pseudo'
    tprnfor = .true.
    tstress = .true.
    disk_io = 'none'
    wf_collect = .false.
    max_seconds = 18000
/
&system
    ibrav = 0
    nat = 53
    ntyp = 1
    ecutwfc = 90
    ecutrho = 1080
    occupations = 'smearing'
    smearing = 'mv'
    degauss = 0.01
    nspin = 1
/
&electrons
    electron_maxstep = 300
    conv_thr = 1.0d-8
    mixing_beta = 0.2
/
ATOMIC_SPECIES
    Fe  55.845  Fe.pbe-spn-kjpaw_psl.1.0.0.UPF
CELL_PARAMETERS angstrom
    8.60430000 0.00000000 0.00000000
    0.00000000 8.60430000 0.00000000
    0.00000000 0.00000000 8.60430000
ATOMIC_POSITIONS angstrom
Fe               0.2521559959        0.2521559959        0.2521559959
Fe               1.6893296677        1.6893296677        1.6893296677
Fe               0.1980693410        0.1980693410        2.8681000000
Fe               1.6893296677        1.6893296677        4.0468703323
Fe               0.2521559959        0.2521559959        5.4840440041
Fe               1.2966598241        1.2966598241        7.1702500000
Fe               0.1980693410        2.8681000000        0.1980693410
Fe               1.6893296677        4.0468703323        1.6893296677
Fe              -0.1093603130        2.8681000000        2.8681000000
Fe               1.6893296677        4.0468703323        4.0468703323
Fe               0.1980693410        2.8681000000        5.5381306590
Fe               1.2966598241        4.4395401759        7.1702500000
Fe               0.2521559959        5.4840440041        0.2521559959
Fe               1.2966598241        7.1702500000        1.2966598241
Fe               0.1980693410        5.5381306590        2.8681000000
Fe               1.2966598241        7.1702500000        4.4395401759
Fe               0.2521559959        5.4840440041        5.4840440041
Fe               1.3596075050        7.1702500000        7.1702500000
Fe               2.8681000000        0.1980693410        0.1980693410
Fe               4.0468703323        1.6893296677        1.6893296677
Fe               2.8681000000       -0.1093603130        2.8681000000
Fe               4.0468703323        1.6893296677        4.0468703323
Fe               2.8681000000        0.1980693410        5.5381306590
Fe               4.4395401759        1.2966598241        7.1702500000
Fe               2.8681000000        2.8681000000       -0.1093603130
Fe               4.0468703323        4.0468703323        1.6893296677
Fe               4.0468703323        4.0468703323        4.0468703323
Fe               2.8681000000        2.8681000000        5.8455603130
Fe               4.4395401759        4.4395401759        7.1702500000
Fe               2.8681000000        5.5381306590        0.1980693410
Fe               4.4395401759        7.1702500000        1.2966598241
Fe               2.8681000000        5.8455603130        2.8681000000
Fe               4.4395401759        7.1702500000        4.4395401759
Fe               2.8681000000        5.5381306590        5.5381306590
Fe               4.3765924950        7.1702500000        7.1702500000
Fe               5.4840440041        0.2521559959        0.2521559959
Fe               7.1702500000        1.2966598241        1.2966598241
Fe               5.5381306590        0.1980693410        2.8681000000
Fe               7.1702500000        1.2966598241        4.4395401759
Fe               5.4840440041        0.2521559959        5.4840440041
Fe               7.1702500000        1.3596075050        7.1702500000
Fe               5.5381306590        2.8681000000        0.1980693410
Fe               7.1702500000        4.4395401759        1.2966598241
Fe               5.8455603130        2.8681000000        2.8681000000
Fe               7.1702500000        4.4395401759        4.4395401759
Fe               5.5381306590        2.8681000000        5.5381306590
Fe               7.1702500000        4.3765924950        7.1702500000
Fe               5.4840440041        5.4840440041        0.2521559959
Fe               7.1702500000        7.1702500000        1.3596075050
Fe               5.5381306590        5.5381306590        2.8681000000
Fe               7.1702500000        7.1702500000        4.3765924950
Fe               5.4840440041        5.4840440041        5.4840440041
Fe               7.1702500000        7.1702500000        7.1702500000

K_POINTS automatic
    10 10 10 0 0 0
