&CONTROL
  calculation = 'scf',
  prefix = 'fe_bcc_nm',
  pseudo_dir = '../../pseudopotentials/',
  outdir = './tmp/',
  tprnfor = .true.,
  tstress = .true.,
/
&SYSTEM
  ibrav = 3,
  celldm(1) = 5.42,
  nat = 1,
  ntyp = 1,
  ecutwfc = 45.0,
  ecutrho = 360.0,
  occupations = 'smearing',
  smearing = 'marzari-vanderbilt',
  degauss = 0.02,
  nspin = 1,             ! Key difference - non-magnetic
/
&ELECTRONS
  conv_thr = 1.0E-06,
  mixing_beta = 0.3,
  mixing_mode = 'local-TF',
  electron_maxstep = 80,
/
ATOMIC_SPECIES
  Fe 55.845 Fe.pbe-spn-kjpaw_psl.1.0.0.UPF
ATOMIC_POSITIONS crystal
  Fe 0.0 0.0 0.0
K_POINTS automatic
  8 8 8 0 0 0
